0 4991
1 4983
2 4957
4 4930
10 4903
16 4854
18 4837
21 4796
23 4789
28 4786
38 4736
41 4677
43 4663
45 4644
46 4637
47 4592
48 4560
50 4553
60 4533
69 4514
74 4500
115 4489
119 4479
144 4477
145 4460
149 4442
150 4416
158 4402
171 4369
182 4357
188 4354
191 4348
195 4335
197 4310
207 4283
226 4281
243 4277
253 4275
254 4268
558 4264
570 4256
609 4246
626 4238
634 4237
687 4217
708 4201
738 4199
814 4196
841 4195
982 4173
1040 4168
1198 4167
1203 4166
1327 4150
1388 4145
1578 4144
1638 4107
1839 4106
2154 4088
2164 4087
2307 4084
2320 4076
2373 4072
2505 4070
2821 4063
4873 4059
5740 4057
7904 4054
13277 4041
13409 4035
15923 4032
16438 4030
17215 4025
17477 4022
17561 4018
17706 4016
18116 4011
18627 4010
19045 4006
31735 4005
31941 4004
32232 4000
33380 3997
33855 3991
34882 3990
35663 3986
37755 3984
50137 3979
67429 3976
